
  12    4
  10   10   10   10

   0   0   0   0   0   3 2 3 4 
  10  10  10  10  10   2 7 6 
   2  10  10  10  10   2 7 5 
   8  10  10  10  10   2 7 5 
   5  10  10  10  10   2 11 8 
  10  10  10  10  10   2 11 8 
   1  10  10  10  10   2 11 10 
   9  10  10  10  10   1 9 
   7  10  10  10  10   1 10 
   2  10  10  10  10   1 12
   3  10  10  10  10   1 12
   0   0   0   0   0   0 
